
Value of objective function: 68.00000000

Actual values of the variables:
v1                              1
v2                              1
v3                              0
v4                              0
v5                              1
v6                              0
v7                              1
v8                              1
v10                             1
v11                             1
v12                             0
v13                             1
v14                             0
v15                             1
v16                             0
v17                             1
v18                             1
v20                             0
v21                             0
v22                             0
v23                             0
v24                             1
v25                             1
v28                             0
v29                             0
v30                             1
v31                             1
v32                             0
v33                             0
v34                             0
v35                             1
v36                             0
v37                             1
v38                             0
v39                             1
v40                             1
v41                             0
v42                             1
v43                             0
v44                             1
v45                             0
v46                             1
v47                             1
v48                             1
v49                             1
v50                             0
v26                             0
v27                             0
v9                              0
v19                             0
